p cnf 33 58
-16 -17 0
-16 -18 0
-16 -19 0
-17 -18 0
-17 -19 0
-18 -19 0
16 17 18 19 0
-20 -21 0
-20 -22 0
-20 -23 0
-20 -24 0
-21 -22 0
-21 -23 0
-21 -24 0
-22 -23 0
-22 -24 0
-23 -24 0
20 21 22 23 24 0
-25 -26 0
-25 -27 0
-26 -27 0
25 26 27 0
-28 -29 0
28 29 0
-30 -31 0
-30 -32 0
-30 -33 0
-31 -32 0
-31 -33 0
-32 -33 0
30 31 32 33 0
-1 -16 0
-2 -16 -20 0
-2 -17 -21 0
-2 -18 -22 0
-2 -19 -24 0
-3 -17 -25 0
-3 -18 -26 0
-4 -19 0
-17 -28 0
-18 -29 0
-5 -23 0
-6 -27 0
-7 -32 0
-8 -21 -25 0
-8 -22 -26 0
-8 -23 -27 0
-9 -24 0
-10 -21 -28 0
-10 -22 -29 0
-11 -27 0
-12 -25 -30 0
-12 -26 -31 0
-12 -27 -32 0
-13 -33 0
-14 -28 -30 0
-14 -29 -31 0
-15 -32 0
